certificates/rado_a5_c248_N49.cnf
c Rad2 upper bound instance: x1 + 5*x2 - x3 = 248, interval [1,49]
p cnf 49 470
1 4 49 0
-1 -4 -49 0
2 5 49 0
-2 -5 -49 0
3 6 49 0
-3 -6 -49 0
4 7 49 0
-4 -7 -49 0
5 8 49 0
-5 -8 -49 0
1 9 48 0
-1 -9 -48 0
6 9 49 0
-6 -9 -49 0
2 10 48 0
-2 -10 -48 0
7 10 49 0
-7 -10 -49 0
3 11 48 0
-3 -11 -48 0
8 11 49 0
-8 -11 -49 0
4 12 48 0
-4 -12 -48 0
9 12 49 0
-9 -12 -49 0
5 13 48 0
-5 -13 -48 0
10 13 49 0
-10 -13 -49 0
1 14 47 0
-1 -14 -47 0
6 14 48 0
-6 -14 -48 0
11 14 49 0
-11 -14 -49 0
2 15 47 0
-2 -15 -47 0
7 15 48 0
-7 -15 -48 0
12 15 49 0
-12 -15 -49 0
3 16 47 0
-3 -16 -47 0
8 16 48 0
-8 -16 -48 0
13 16 49 0
-13 -16 -49 0
4 17 47 0
-4 -17 -47 0
9 17 48 0
-9 -17 -48 0
14 17 49 0
-14 -17 -49 0
5 18 47 0
-5 -18 -47 0
10 18 48 0
-10 -18 -48 0
15 18 49 0
-15 -18 -49 0
1 19 46 0
-1 -19 -46 0
6 19 47 0
-6 -19 -47 0
11 19 48 0
-11 -19 -48 0
16 19 49 0
-16 -19 -49 0
2 20 46 0
-2 -20 -46 0
7 20 47 0
-7 -20 -47 0
12 20 48 0
-12 -20 -48 0
17 20 49 0
-17 -20 -49 0
3 21 46 0
-3 -21 -46 0
8 21 47 0
-8 -21 -47 0
13 21 48 0
-13 -21 -48 0
18 21 49 0
-18 -21 -49 0
4 22 46 0
-4 -22 -46 0
9 22 47 0
-9 -22 -47 0
14 22 48 0
-14 -22 -48 0
19 22 49 0
-19 -22 -49 0
5 23 46 0
-5 -23 -46 0
10 23 47 0
-10 -23 -47 0
15 23 48 0
-15 -23 -48 0
20 23 49 0
-20 -23 -49 0
1 24 45 0
-1 -24 -45 0
6 24 46 0
-6 -24 -46 0
11 24 47 0
-11 -24 -47 0
16 24 48 0
-16 -24 -48 0
21 24 49 0
-21 -24 -49 0
2 25 45 0
-2 -25 -45 0
7 25 46 0
-7 -25 -46 0
12 25 47 0
-12 -25 -47 0
17 25 48 0
-17 -25 -48 0
22 25 49 0
-22 -25 -49 0
3 26 45 0
-3 -26 -45 0
8 26 46 0
-8 -26 -46 0
13 26 47 0
-13 -26 -47 0
18 26 48 0
-18 -26 -48 0
23 26 49 0
-23 -26 -49 0
4 27 45 0
-4 -27 -45 0
9 27 46 0
-9 -27 -46 0
14 27 47 0
-14 -27 -47 0
19 27 48 0
-19 -27 -48 0
24 27 49 0
-24 -27 -49 0
5 28 45 0
-5 -28 -45 0
10 28 46 0
-10 -28 -46 0
15 28 47 0
-15 -28 -47 0
20 28 48 0
-20 -28 -48 0
25 28 49 0
-25 -28 -49 0
1 29 44 0
-1 -29 -44 0
6 29 45 0
-6 -29 -45 0
11 29 46 0
-11 -29 -46 0
16 29 47 0
-16 -29 -47 0
21 29 48 0
-21 -29 -48 0
26 29 49 0
-26 -29 -49 0
2 30 44 0
-2 -30 -44 0
7 30 45 0
-7 -30 -45 0
12 30 46 0
-12 -30 -46 0
17 30 47 0
-17 -30 -47 0
22 30 48 0
-22 -30 -48 0
27 30 49 0
-27 -30 -49 0
3 31 44 0
-3 -31 -44 0
8 31 45 0
-8 -31 -45 0
13 31 46 0
-13 -31 -46 0
18 31 47 0
-18 -31 -47 0
23 31 48 0
-23 -31 -48 0
28 31 49 0
-28 -31 -49 0
4 32 44 0
-4 -32 -44 0
9 32 45 0
-9 -32 -45 0
14 32 46 0
-14 -32 -46 0
19 32 47 0
-19 -32 -47 0
24 32 48 0
-24 -32 -48 0
29 32 49 0
-29 -32 -49 0
5 33 44 0
-5 -33 -44 0
10 33 45 0
-10 -33 -45 0
15 33 46 0
-15 -33 -46 0
20 33 47 0
-20 -33 -47 0
25 33 48 0
-25 -33 -48 0
30 33 49 0
-30 -33 -49 0
1 34 43 0
-1 -34 -43 0
6 34 44 0
-6 -34 -44 0
11 34 45 0
-11 -34 -45 0
16 34 46 0
-16 -34 -46 0
21 34 47 0
-21 -34 -47 0
26 34 48 0
-26 -34 -48 0
31 34 49 0
-31 -34 -49 0
2 35 43 0
-2 -35 -43 0
7 35 44 0
-7 -35 -44 0
12 35 45 0
-12 -35 -45 0
17 35 46 0
-17 -35 -46 0
22 35 47 0
-22 -35 -47 0
27 35 48 0
-27 -35 -48 0
32 35 49 0
-32 -35 -49 0
3 36 43 0
-3 -36 -43 0
8 36 44 0
-8 -36 -44 0
13 36 45 0
-13 -36 -45 0
18 36 46 0
-18 -36 -46 0
23 36 47 0
-23 -36 -47 0
28 36 48 0
-28 -36 -48 0
33 36 49 0
-33 -36 -49 0
4 37 43 0
-4 -37 -43 0
9 37 44 0
-9 -37 -44 0
14 37 45 0
-14 -37 -45 0
19 37 46 0
-19 -37 -46 0
24 37 47 0
-24 -37 -47 0
29 37 48 0
-29 -37 -48 0
34 37 49 0
-34 -37 -49 0
5 38 43 0
-5 -38 -43 0
10 38 44 0
-10 -38 -44 0
15 38 45 0
-15 -38 -45 0
20 38 46 0
-20 -38 -46 0
25 38 47 0
-25 -38 -47 0
30 38 48 0
-30 -38 -48 0
35 38 49 0
-35 -38 -49 0
1 39 42 0
-1 -39 -42 0
6 39 43 0
-6 -39 -43 0
11 39 44 0
-11 -39 -44 0
16 39 45 0
-16 -39 -45 0
21 39 46 0
-21 -39 -46 0
26 39 47 0
-26 -39 -47 0
31 39 48 0
-31 -39 -48 0
36 39 49 0
-36 -39 -49 0
2 40 42 0
-2 -40 -42 0
7 40 43 0
-7 -40 -43 0
12 40 44 0
-12 -40 -44 0
17 40 45 0
-17 -40 -45 0
22 40 46 0
-22 -40 -46 0
27 40 47 0
-27 -40 -47 0
32 40 48 0
-32 -40 -48 0
37 40 49 0
-37 -40 -49 0
3 41 42 0
-3 -41 -42 0
8 41 43 0
-8 -41 -43 0
13 41 44 0
-13 -41 -44 0
18 41 45 0
-18 -41 -45 0
23 41 46 0
-23 -41 -46 0
28 41 47 0
-28 -41 -47 0
33 41 48 0
-33 -41 -48 0
38 41 49 0
-38 -41 -49 0
4 42 0
-4 -42 0
9 42 43 0
-9 -42 -43 0
14 42 44 0
-14 -42 -44 0
19 42 45 0
-19 -42 -45 0
24 42 46 0
-24 -42 -46 0
29 42 47 0
-29 -42 -47 0
34 42 48 0
-34 -42 -48 0
39 42 49 0
-39 -42 -49 0
5 42 43 0
-5 -42 -43 0
10 43 0
-10 -43 0
15 43 44 0
-15 -43 -44 0
20 43 45 0
-20 -43 -45 0
25 43 46 0
-25 -43 -46 0
30 43 47 0
-30 -43 -47 0
35 43 48 0
-35 -43 -48 0
40 43 49 0
-40 -43 -49 0
1 41 44 0
-1 -41 -44 0
6 42 44 0
-6 -42 -44 0
11 43 44 0
-11 -43 -44 0
16 44 0
-16 -44 0
21 44 45 0
-21 -44 -45 0
26 44 46 0
-26 -44 -46 0
31 44 47 0
-31 -44 -47 0
36 44 48 0
-36 -44 -48 0
41 44 49 0
-41 -44 -49 0
2 41 45 0
-2 -41 -45 0
7 42 45 0
-7 -42 -45 0
12 43 45 0
-12 -43 -45 0
17 44 45 0
-17 -44 -45 0
22 45 0
-22 -45 0
27 45 46 0
-27 -45 -46 0
32 45 47 0
-32 -45 -47 0
37 45 48 0
-37 -45 -48 0
42 45 49 0
-42 -45 -49 0
3 41 46 0
-3 -41 -46 0
8 42 46 0
-8 -42 -46 0
13 43 46 0
-13 -43 -46 0
18 44 46 0
-18 -44 -46 0
23 45 46 0
-23 -45 -46 0
28 46 0
-28 -46 0
33 46 47 0
-33 -46 -47 0
38 46 48 0
-38 -46 -48 0
43 46 49 0
-43 -46 -49 0
4 41 47 0
-4 -41 -47 0
9 42 47 0
-9 -42 -47 0
14 43 47 0
-14 -43 -47 0
19 44 47 0
-19 -44 -47 0
24 45 47 0
-24 -45 -47 0
29 46 47 0
-29 -46 -47 0
34 47 0
-34 -47 0
39 47 48 0
-39 -47 -48 0
44 47 49 0
-44 -47 -49 0
5 41 48 0
-5 -41 -48 0
10 42 48 0
-10 -42 -48 0
15 43 48 0
-15 -43 -48 0
20 44 48 0
-20 -44 -48 0
25 45 48 0
-25 -45 -48 0
30 46 48 0
-30 -46 -48 0
35 47 48 0
-35 -47 -48 0
40 48 0
-40 -48 0
45 48 49 0
-45 -48 -49 0
1 40 49 0
-1 -40 -49 0
6 41 49 0
-6 -41 -49 0
11 42 49 0
-11 -42 -49 0
16 43 49 0
-16 -43 -49 0
21 44 49 0
-21 -44 -49 0
26 45 49 0
-26 -45 -49 0
31 46 49 0
-31 -46 -49 0
36 47 49 0
-36 -47 -49 0
41 48 49 0
-41 -48 -49 0
46 49 0
-46 -49 0
