certificates/rado_a5_c248_N49.drat
-49 0
46 0
-28 0
25 0
31 0
-7 0
-43 0
-13 0
4 0
10 0
40 0
16 0
-42 0
-22 0
-48 0
-34 0
-44 0
39 0
45 0
11 0
9 0
5 0
14 0
19 0
30 0
41 0
0
